(declare-fun var0 () String)
(declare-fun var1 () String)
(declare-fun var2 () String)
(declare-fun var3 () String)
(declare-fun var4 () String)
(declare-fun var5 () String)
(declare-fun var6 () String)
(declare-fun var7 () String)
(declare-fun var8 () String)
(declare-fun var9 () String)
(declare-fun var10 () String)
(declare-fun var11 () String)
(declare-fun var12 () String)
(declare-fun var13 () String)
(declare-fun var14 () String)
(declare-fun var15 () String)
(declare-fun var16 () String)
(declare-fun var17 () String)
(declare-fun var18 () String)
(declare-fun var19 () String)
(declare-fun var20 () String)
(declare-fun var21 () String)
(declare-fun var22 () String)
(declare-fun var23 () String)
(declare-fun var24 () String)
(declare-fun var25 () String)
(declare-fun var26 () String)
(declare-fun var27 () String)
(declare-fun var28 () String)
(declare-fun var29 () String)
(declare-fun var30 () String)
(declare-fun var31 () String)
(declare-fun var32 () String)
(declare-fun var33 () String)
(declare-fun var34 () String)
(declare-fun var35 () String)
(declare-fun var36 () String)
(declare-fun var37 () String)
(declare-fun var38 () String)
(declare-fun var39 () String)
(declare-fun var40 () String)
(declare-fun var41 () String)
(declare-fun var42 () String)
(declare-fun var43 () String)
(declare-fun var44 () String)
(declare-fun var45 () String)
(declare-fun var46 () String)
(declare-fun var47 () String)
(declare-fun var48 () String)
(declare-fun var49 () String)
(declare-fun var50 () String)
(declare-fun var51 () String)
(declare-fun var52 () String)
(declare-fun var53 () String)
(declare-fun var54 () String)
(declare-fun var55 () String)
(declare-fun var56 () String)
(declare-fun var57 () String)
(declare-fun var58 () String)
(declare-fun var59 () String)
(declare-fun var60 () String)
(assert (= var0 (Concat var1 var2)))
(assert (= var2 (Concat var3 var4)))
(assert (= var4 (Concat var5 var6)))
(assert (= var6 (Concat var7 var8)))
(assert (= var8 (Concat var9 var10)))
(assert (= var10 (Concat var11 var12)))
(assert (= var12 (Concat var13 var14)))
(assert (= var14 (Concat var15 var16)))
(assert (= var16 (Concat var17 var18)))
(assert (= var18 (Concat var19 var20)))
(assert (= var20 (Concat var21 var22)))
(assert (= var22 (Concat var23 var24)))
(assert (= var24 (Concat var25 var26)))
(assert (= var26 (Concat var27 var28)))
(assert (= var28 (Concat var29 var30)))
(assert (= var30 (Concat var31 var32)))
(assert (= var32 (Concat var33 var34)))
(assert (= var34 (Concat var35 var36)))
(assert (= var36 (Concat var37 var38)))
(assert (= var38 (Concat var39 var40)))
(assert (= var40 (Concat var41 var42)))
(assert (= var42 (Concat var43 var44)))
(assert (= var44 (Concat var45 var46)))
(assert (= var46 (Concat var47 var48)))
(assert (= var48 (Concat var49 var50)))
(assert (= var50 (Concat var51 var52)))
(assert (= var52 (Concat var53 var54)))
(assert (= var54 (Concat var55 var56)))
(assert (= var56 (Concat var57 var58)))
(assert (= var58 (Concat var59 var60)))
(assert (= var0 "solution"))
(assert (= "r" (CharAt var53 48)))
(assert (= "A" (CharAt var58 69)))
(assert (= "S" (CharAt var7 536)))
(assert (= "n" (CharAt var5 735)))
(assert (= "o" (CharAt var22 227)))
(assert (= "w" (CharAt var5 316)))
(assert (= "0" (CharAt var29 92)))
(assert (= "d" (CharAt var28 727)))
(assert (= "K" (CharAt var36 310)))
(assert (= ")" (CharAt var21 975)))
(assert (= "%" (CharAt var33 316)))
(assert (= "<" (CharAt var30 896)))
(assert (= "=" (CharAt var42 962)))
(assert (= "N" (CharAt var24 221)))
(assert (= ":" (CharAt var4 329)))
(assert (= "^" (CharAt var40 838)))
(assert (= "T" (CharAt var36 512)))
(assert (= "S" (CharAt var50 348)))
(assert (= "q" (CharAt var41 54)))
(assert (= "[" (CharAt var31 984)))
(assert (= "j" (CharAt var59 558)))
(assert (= "S" (CharAt var16 172)))
(assert (= ":" (CharAt var6 856)))
(assert (= "Q" (CharAt var31 114)))
(assert (= "Z" (CharAt var31 41)))
(assert (= "2" (CharAt var20 501)))
(assert (= "A" (CharAt var29 227)))
(assert (= ")" (CharAt var35 724)))
(assert (= "!" (CharAt var22 417)))
(assert (= "n" (CharAt var21 451)))
(assert (= "0" (CharAt var20 135)))
(assert (= "y" (CharAt var7 481)))
(assert (= "W" (CharAt var27 716)))
(assert (= ")" (CharAt var5 320)))
(assert (= "*" (CharAt var57 420)))
(assert (= "w" (CharAt var18 217)))
(assert (= "t" (CharAt var12 903)))
(assert (= "m" (CharAt var24 97)))
(assert (= "V" (CharAt var3 351)))
(assert (= "#" (CharAt var1 626)))
(assert (= "9" (CharAt var29 750)))
(assert (= "=" (CharAt var38 216)))
(assert (= "F" (CharAt var28 358)))
(assert (= "}" (CharAt var4 687)))
(assert (= "r" (CharAt var53 376)))
(assert (= "{" (CharAt var40 658)))
(assert (= "<" (CharAt var0 760)))
(assert (= "}" (CharAt var33 563)))
(assert (= "1" (CharAt var55 540)))
(assert (= "#" (CharAt var33 85)))
(assert (= "{" (CharAt var45 136)))
(assert (= "l" (CharAt var40 337)))
(assert (= "v" (CharAt var18 683)))
(assert (= "/" (CharAt var43 849)))
(assert (= "?" (CharAt var58 850)))
(assert (= "B" (CharAt var23 332)))
(assert (= "F" (CharAt var42 237)))
(assert (= "x" (CharAt var37 29)))
(assert (= ":" (CharAt var58 357)))
(assert (= ";" (CharAt var36 29)))
(assert (= "r" (CharAt var19 355)))
(assert (= "Z" (CharAt var10 260)))
(assert (= "U" (CharAt var22 136)))
(assert (= "u" (CharAt var46 167)))
(assert (= "?" (CharAt var55 132)))
(assert (= "d" (CharAt var12 692)))
(assert (= "O" (CharAt var58 821)))
(assert (= "j" (CharAt var8 40)))
(assert (= "T" (CharAt var8 993)))
(assert (= "H" (CharAt var3 875)))
(assert (= "l" (CharAt var53 161)))
(assert (= "~" (CharAt var48 967)))
(assert (= "t" (CharAt var12 258)))
(assert (= "D" (CharAt var57 291)))
(assert (= "B" (CharAt var5 758)))
(assert (= "P" (CharAt var43 258)))
(assert (= "X" (CharAt var47 901)))
(assert (= "t" (CharAt var16 645)))
(assert (= "J" (CharAt var27 476)))
(assert (= "p" (CharAt var45 176)))
(assert (= "\\" (CharAt var5 864)))
(assert (= "{" (CharAt var47 876)))
(assert (= "Z" (CharAt var8 220)))
(assert (= "8" (CharAt var31 405)))
(assert (= "6" (CharAt var31 370)))
(assert (= "[" (CharAt var34 416)))
(assert (= "x" (CharAt var7 780)))
(assert (= "K" (CharAt var49 363)))
(assert (= "9" (CharAt var55 955)))
(assert (= "\"" (CharAt var19 295)))
(assert (= "-" (CharAt var56 760)))
(assert (= "I" (CharAt var33 683)))
(assert (= "P" (CharAt var15 291)))
(assert (= ")" (CharAt var52 572)))
(assert (= "H" (CharAt var42 636)))
(assert (= "$" (CharAt var28 541)))
(assert (= "X" (CharAt var48 104)))
(assert (= ":" (CharAt var38 776)))
(assert (= "A" (CharAt var43 445)))
(assert (= "^" (CharAt var16 781)))
(assert (= "t" (CharAt var24 919)))
(assert (= "_" (CharAt var60 196)))
(assert (= "F" (CharAt var20 791)))
(assert (= ":" (CharAt var56 6)))
(assert (= "o" (CharAt var23 545)))
(assert (= "<" (CharAt var39 204)))
(assert (= ">" (CharAt var56 932)))
(assert (= "S" (CharAt var23 621)))
(assert (= "w" (CharAt var52 554)))
(assert (= "1" (CharAt var35 742)))
(assert (= "8" (CharAt var5 368)))
(assert (= "l" (CharAt var27 620)))
(assert (= "g" (CharAt var33 475)))
(assert (= "Y" (CharAt var2 724)))
(assert (= ")" (CharAt var12 283)))
(assert (= "L" (CharAt var13 641)))
(assert (= "l" (CharAt var34 812)))
(assert (= "b" (CharAt var19 689)))
(assert (= "0" (CharAt var3 786)))
(assert (= "<" (CharAt var40 492)))
(assert (= "c" (CharAt var2 363)))
(assert (= "v" (CharAt var52 369)))
(assert (= ">" (CharAt var46 943)))
(assert (= "W" (CharAt var18 57)))
(assert (= "h" (CharAt var0 937)))
(assert (= "v" (CharAt var2 127)))
(assert (= "0" (CharAt var28 196)))
(assert (= "m" (CharAt var56 891)))
(assert (= "V" (CharAt var22 284)))
(assert (= "w" (CharAt var6 436)))
(assert (= "1" (CharAt var20 408)))
(assert (= "j" (CharAt var15 685)))
(assert (= "H" (CharAt var11 271)))
(assert (= "5" (CharAt var53 790)))
(assert (= "?" (CharAt var53 315)))
(assert (= "Z" (CharAt var54 417)))
(assert (= "k" (CharAt var39 588)))
(assert (= "0" (CharAt var28 914)))
(assert (= "T" (CharAt var8 503)))
(assert (= "0" (CharAt var26 272)))
(assert (= "?" (CharAt var7 489)))
(assert (= "t" (CharAt var51 848)))
(assert (= "%" (CharAt var42 723)))
(assert (= "o" (CharAt var37 892)))
(assert (= "3" (CharAt var45 182)))
(assert (= "_" (CharAt var17 149)))
(assert (= "X" (CharAt var59 389)))
(assert (= "i" (CharAt var41 205)))
(assert (= "R" (CharAt var26 648)))
(assert (= "J" (CharAt var14 46)))
(assert (= "Z" (CharAt var7 988)))
(assert (= "I" (CharAt var8 536)))
(assert (= "g" (CharAt var33 931)))
(assert (= "a" (CharAt var35 547)))
(assert (= "~" (CharAt var33 423)))
(assert (= "2" (CharAt var27 658)))
(assert (= "~" (CharAt var28 845)))
(assert (= "|" (CharAt var11 654)))
(assert (= "C" (CharAt var49 314)))
(assert (= "S" (CharAt var46 966)))
(assert (= "6" (CharAt var29 329)))
(assert (= "O" (CharAt var5 623)))
(assert (= "C" (CharAt var46 477)))
(assert (= "@" (CharAt var36 736)))
(assert (= "I" (CharAt var7 884)))
(assert (= ">" (CharAt var9 982)))
(assert (= "`" (CharAt var17 898)))
(assert (= "X" (CharAt var22 730)))
(assert (= "]" (CharAt var12 646)))
(assert (= "k" (CharAt var12 469)))
(assert (= "2" (CharAt var50 237)))
(assert (= "H" (CharAt var20 203)))
(assert (= "d" (CharAt var41 934)))
(assert (= "c" (CharAt var34 970)))
(assert (= "I" (CharAt var44 639)))
(assert (= "X" (CharAt var46 267)))
(assert (= "I" (CharAt var25 274)))
(assert (= "(" (CharAt var19 660)))
(assert (= "(" (CharAt var59 704)))
(assert (= "n" (CharAt var30 902)))
(assert (= "I" (CharAt var20 368)))
(assert (= "'" (CharAt var10 633)))
(assert (= "3" (CharAt var18 664)))
(assert (= "%" (CharAt var0 425)))
(assert (= "t" (CharAt var30 973)))
(assert (= "/" (CharAt var25 57)))
(assert (= "S" (CharAt var19 470)))
(assert (= "j" (CharAt var9 77)))
(assert (= "G" (CharAt var11 840)))
(assert (= "^" (CharAt var5 86)))
(assert (= "@" (CharAt var59 957)))
(assert (= "y" (CharAt var45 914)))
(assert (= "f" (CharAt var17 633)))
(assert (= "A" (CharAt var31 211)))
(assert (= "l" (CharAt var5 122)))
(assert (= "2" (CharAt var35 624)))
(assert (= "y" (CharAt var56 763)))
(assert (= "=" (CharAt var15 525)))
(assert (= "X" (CharAt var33 372)))
(assert (= "4" (CharAt var4 691)))
(assert (= "u" (CharAt var11 669)))
(assert (= "q" (CharAt var44 138)))
(assert (= "%" (CharAt var59 986)))
(assert (= "F" (CharAt var52 72)))
(assert (= "m" (CharAt var23 208)))
(assert (= "d" (CharAt var30 233)))
(assert (= "o" (CharAt var4 525)))
(assert (= "s" (CharAt var24 821)))
(assert (= "D" (CharAt var53 298)))
(assert (= "X" (CharAt var43 362)))
(assert (= "R" (CharAt var7 271)))
(assert (= "$" (CharAt var1 993)))
(assert (= "}" (CharAt var50 481)))
(assert (= "5" (CharAt var48 737)))
(assert (= "w" (CharAt var39 494)))
(assert (= "4" (CharAt var46 802)))
(assert (= "q" (CharAt var14 559)))
(assert (= "D" (CharAt var8 489)))
(assert (= "]" (CharAt var19 391)))
(assert (= "f" (CharAt var13 255)))
(assert (= "b" (CharAt var58 803)))
(assert (= ")" (CharAt var29 276)))
(assert (= "=" (CharAt var59 5)))
(assert (= "A" (CharAt var23 864)))
(assert (= "H" (CharAt var10 262)))
(assert (= "O" (CharAt var52 228)))
(assert (= "-" (CharAt var46 355)))
(assert (= "b" (CharAt var55 579)))
(assert (= "~" (CharAt var29 47)))
(assert (= "E" (CharAt var1 762)))
(assert (= "*" (CharAt var46 318)))
(assert (= "l" (CharAt var51 262)))
(assert (= "g" (CharAt var35 707)))
(assert (= "W" (CharAt var41 635)))
(assert (= "C" (CharAt var14 71)))
(assert (= "s" (CharAt var28 218)))
(assert (= "i" (CharAt var58 523)))
(assert (= "F" (CharAt var16 482)))
(assert (= "n" (CharAt var39 747)))
(assert (= ")" (CharAt var9 263)))
(assert (= "z" (CharAt var58 158)))
(assert (= "W" (CharAt var23 843)))
(assert (= "R" (CharAt var48 566)))
(assert (= "s" (CharAt var40 800)))
(assert (= "X" (CharAt var8 105)))
(assert (= "u" (CharAt var56 966)))
(assert (= "t" (CharAt var29 505)))
(assert (= "{" (CharAt var12 193)))
(assert (= "m" (CharAt var17 432)))
(assert (= "@" (CharAt var7 514)))
(assert (= "N" (CharAt var23 939)))
(assert (= "p" (CharAt var19 954)))
(assert (= "{" (CharAt var34 913)))
(assert (= "C" (CharAt var48 424)))
(assert (= "(" (CharAt var25 308)))
(assert (= "3" (CharAt var5 491)))
(assert (= "g" (CharAt var3 597)))
(assert (= "_" (CharAt var27 717)))
(assert (= "I" (CharAt var34 381)))
(assert (= ">" (CharAt var25 492)))
(assert (= "{" (CharAt var24 647)))
(assert (= "+" (CharAt var54 515)))
(assert (= "(" (CharAt var59 922)))
(assert (= "9" (CharAt var23 707)))
(assert (= "p" (CharAt var41 329)))
(assert (= "_" (CharAt var27 196)))
(assert (= "=" (CharAt var14 949)))
(assert (= "E" (CharAt var1 782)))
(assert (= "r" (CharAt var18 890)))
(assert (= "}" (CharAt var58 46)))
(assert (= "D" (CharAt var8 747)))
(assert (= "s" (CharAt var49 202)))
(assert (= "]" (CharAt var31 668)))
(assert (= "[" (CharAt var4 77)))
(assert (= "a" (CharAt var1 143)))
(assert (= "v" (CharAt var10 361)))
(assert (= "-" (CharAt var6 193)))
(assert (= "<" (CharAt var38 681)))
(assert (= "\"" (CharAt var46 469)))
(assert (= "w" (CharAt var55 998)))
(assert (= "B" (CharAt var31 469)))
(assert (= "O" (CharAt var42 292)))
(assert (= "@" (CharAt var43 553)))
(assert (= "t" (CharAt var29 583)))
(assert (= ";" (CharAt var28 981)))
(assert (= "5" (CharAt var57 818)))
(assert (= "B" (CharAt var14 378)))
(assert (= "m" (CharAt var40 225)))
(assert (= ":" (CharAt var5 202)))
(assert (= "B" (CharAt var25 809)))
(assert (= "u" (CharAt var11 485)))
(assert (= "?" (CharAt var3 800)))
(assert (= "F" (CharAt var39 967)))
(assert (= "f" (CharAt var52 329)))
(assert (= "j" (CharAt var56 678)))
(assert (= "Q" (CharAt var36 893)))
(assert (= "v" (CharAt var4 134)))
(assert (= "H" (CharAt var19 328)))
(assert (= "4" (CharAt var42 160)))
(assert (= "=" (CharAt var26 76)))
(assert (= "C" (CharAt var32 951)))
(assert (= "0" (CharAt var18 135)))
(assert (= "B" (CharAt var29 485)))
(assert (= "a" (CharAt var53 662)))
(assert (= "V" (CharAt var0 966)))
(assert (= "6" (CharAt var32 824)))
(assert (= ";" (CharAt var54 370)))
(assert (= "s" (CharAt var45 933)))
(assert (= "|" (CharAt var6 402)))
(assert (= "f" (CharAt var25 501)))
(assert (= ">" (CharAt var35 260)))
(assert (= "9" (CharAt var56 47)))
(assert (= "&" (CharAt var24 912)))
(assert (= "'" (CharAt var40 258)))
(assert (= "{" (CharAt var31 947)))
(assert (= "k" (CharAt var8 626)))
(assert (= "%" (CharAt var12 227)))
(assert (= "[" (CharAt var49 383)))
(assert (= "8" (CharAt var20 219)))
(assert (= "a" (CharAt var5 805)))
(assert (= "x" (CharAt var60 911)))
(assert (= "o" (CharAt var38 801)))
(assert (= "f" (CharAt var18 918)))
(assert (= "`" (CharAt var18 676)))
(assert (= "'" (CharAt var22 69)))
(assert (= ";" (CharAt var47 170)))
(assert (= "^" (CharAt var57 684)))
(assert (= "t" (CharAt var1 691)))
(assert (= "U" (CharAt var30 809)))
(assert (= "Q" (CharAt var38 929)))
(assert (= "g" (CharAt var42 311)))
(assert (= "p" (CharAt var25 817)))
(assert (= "l" (CharAt var23 643)))
(assert (= "J" (CharAt var37 964)))
(assert (= "-" (CharAt var16 330)))
(assert (= "8" (CharAt var47 190)))
(assert (= "p" (CharAt var23 994)))
(assert (= "<" (CharAt var16 504)))
(assert (= "." (CharAt var21 439)))
(assert (= "z" (CharAt var50 570)))
(assert (= "H" (CharAt var15 412)))
(assert (= "M" (CharAt var55 378)))
(assert (= "1" (CharAt var18 795)))
(assert (= "a" (CharAt var51 370)))
(assert (= "?" (CharAt var25 712)))
(assert (= "z" (CharAt var3 902)))
(assert (= "}" (CharAt var25 767)))
(assert (= "U" (CharAt var36 481)))
(assert (= "&" (CharAt var40 626)))
(assert (= "(" (CharAt var35 277)))
(assert (= "j" (CharAt var16 362)))
(assert (= "]" (CharAt var32 808)))
(assert (= "V" (CharAt var47 283)))
(assert (= "v" (CharAt var31 599)))
(assert (= "N" (CharAt var45 900)))
(assert (= "a" (CharAt var10 236)))
(assert (= "H" (CharAt var20 395)))
(assert (= "j" (CharAt var35 718)))
(assert (= "{" (CharAt var59 165)))
(assert (= "g" (CharAt var57 796)))
(assert (= "3" (CharAt var37 869)))
(assert (= "A" (CharAt var50 457)))
(assert (= "7" (CharAt var39 184)))
(assert (= "}" (CharAt var33 770)))
(assert (= "r" (CharAt var9 425)))
(assert (= "," (CharAt var33 249)))
(assert (= "," (CharAt var19 498)))
(assert (= "k" (CharAt var16 202)))
(assert (= "a" (CharAt var10 877)))
(assert (= "N" (CharAt var59 388)))
(assert (= ">" (CharAt var8 515)))
(assert (= "P" (CharAt var56 278)))
(assert (= "H" (CharAt var4 893)))
(assert (= "w" (CharAt var54 720)))
(assert (= "T" (CharAt var52 638)))
(assert (= "S" (CharAt var6 362)))
(assert (= "i" (CharAt var26 728)))
(assert (= "Y" (CharAt var9 773)))
(assert (= "i" (CharAt var8 455)))
(assert (= "2" (CharAt var26 83)))
(assert (= "k" (CharAt var57 391)))
(assert (= "d" (CharAt var43 855)))
(assert (= "," (CharAt var24 368)))
(assert (= "}" (CharAt var32 515)))
(assert (= "." (CharAt var16 5)))
(assert (= "r" (CharAt var60 48)))
(assert (= "m" (CharAt var50 890)))
(assert (= "+" (CharAt var34 933)))
(assert (= "y" (CharAt var38 689)))
(assert (= "c" (CharAt var11 204)))
(assert (= "}" (CharAt var59 925)))
(assert (= ":" (CharAt var7 340)))
(assert (= "O" (CharAt var49 691)))
(assert (= "S" (CharAt var34 453)))
(assert (= "x" (CharAt var6 806)))
(assert (= "J" (CharAt var11 850)))
(assert (= "}" (CharAt var22 990)))
(assert (= "u" (CharAt var53 188)))
(assert (= "$" (CharAt var3 374)))
(assert (= "4" (CharAt var35 728)))
(assert (= "K" (CharAt var53 290)))
(check-sat)